NAME: ALEX10
TYPE: TSP
COMMENT: 10-city problem ALEXANDRE 
DIMENSION:  10
EDGE_WEIGHT_TYPE : EUC_2D
NODE_COORD_SECTION
1 1000 1000
2 1000 3000
3 1000 5000
4 2000 6000
5 4000 6000 
6 6000 6000
7 6000 4000
8 6000 2000
9 5000 1000
10 3000 1000
EOF
